MMBP/Data_G_FJSP_Version/p11.fjs
16 8 1
2.0 4.0 1.0 52.0 2.0 50.0 3.0 48.0 4.0 52.0 4.0 5.0 36.0 6.0 31.0 7.0 26.0 8.0 32.0
2.0 4.0 1.0 42.0 2.0 35.0 3.0 54.0 4.0 44.0 4.0 5.0 26.0 6.0 43.0 7.0 37.0 8.0 49.0
2.0 4.0 1.0 42.0 2.0 50.0 3.0 33.0 4.0 35.0 4.0 5.0 45.0 6.0 57.0 7.0 35.0 8.0 59.0
2.0 4.0 1.0 33.0 2.0 31.0 3.0 55.0 4.0 33.0 4.0 5.0 40.0 6.0 53.0 7.0 47.0 8.0 31.0
2.0 4.0 1.0 45.0 2.0 48.0 3.0 31.0 4.0 44.0 4.0 5.0 34.0 6.0 31.0 7.0 55.0 8.0 29.0
2.0 4.0 1.0 53.0 2.0 41.0 3.0 51.0 4.0 55.0 4.0 5.0 36.0 6.0 43.0 7.0 56.0 8.0 28.0
2.0 4.0 1.0 30.0 2.0 50.0 3.0 36.0 4.0 34.0 4.0 5.0 36.0 6.0 59.0 7.0 41.0 8.0 40.0
2.0 4.0 1.0 53.0 2.0 33.0 3.0 40.0 4.0 48.0 4.0 5.0 44.0 6.0 25.0 7.0 35.0 8.0 34.0
2.0 4.0 1.0 52.0 2.0 32.0 3.0 44.0 4.0 37.0 4.0 5.0 28.0 6.0 26.0 7.0 47.0 8.0 28.0
2.0 4.0 1.0 46.0 2.0 52.0 3.0 47.0 4.0 31.0 4.0 5.0 48.0 6.0 58.0 7.0 50.0 8.0 54.0
2.0 4.0 1.0 45.0 2.0 55.0 3.0 28.0 4.0 45.0 4.0 5.0 52.0 6.0 50.0 7.0 41.0 8.0 40.0
2.0 4.0 1.0 33.0 2.0 43.0 3.0 35.0 4.0 57.0 4.0 5.0 54.0 6.0 29.0 7.0 41.0 8.0 57.0
2.0 4.0 1.0 51.0 2.0 34.0 3.0 52.0 4.0 54.0 4.0 5.0 31.0 6.0 36.0 7.0 47.0 8.0 53.0
2.0 4.0 1.0 57.0 2.0 47.0 3.0 57.0 4.0 42.0 4.0 5.0 30.0 6.0 46.0 7.0 55.0 8.0 52.0
2.0 4.0 1.0 50.0 2.0 30.0 3.0 45.0 4.0 41.0 4.0 5.0 36.0 6.0 43.0 7.0 52.0 8.0 37.0
2.0 4.0 1.0 52.0 2.0 33.0 3.0 58.0 4.0 54.0 4.0 5.0 31.0 6.0 58.0 7.0 56.0 8.0 53.0
