MMBP/Data_G/p11.txt
TABLE P(I,M)
1	2	3	4	5	6	7	8
1	52	50	48	52	36	31	26	32
2	42	35	54	44	26	43	37	49
3	42	50	33	35	45	57	35	59
4	33	31	55	33	40	53	47	31
5	45	48	31	44	34	31	55	29
6	53	41	51	55	36	43	56	28
7	30	50	36	34	36	59	41	40
8	53	33	40	48	44	25	35	34
9	52	32	44	37	28	26	47	28
10	46	52	47	31	48	58	50	54
11	45	55	28	45	52	50	41	40
12	33	43	35	57	54	29	41	57
13	51	34	52	54	31	36	47	53
14	57	47	57	42	30	46	55	52
15	50	30	45	41	36	43	52	37
16	52	33	58	54	31	58	56	53

TABLE RMK(M,K)
1	2
1*4	1	
5*8		1

PARAMETERS
R(I)	1 7, 2 34, 3 48, 4 59, 5 45, 6 91, 7 42, 8 30, 9 13, 10 110, 11 58, 12 27, 13 10, 14 98, 15 72, 16 50
D(I)	1 249, 2 225, 3 240, 4 226, 5 258, 6 171, 7 210, 8 205, 9 252, 10 288, 11 255, 12 182, 13 289, 14 297, 15 219, 16 157
